4365400778234877157078990238978484519749461692562831580869286146649563345536116867127533896287253138879461391027896735444779949102507388182914041383997086814555635906087175213063710397783722759941400786339066436413576681567750434559852297482334149709292494951283189090475436354492533645354153400296366463548583667383003704194240405578381527375312894361754002314052951437209481166336629674587288101539694673112000515060782078463516436879926592147198760839649372685718789005299325958238690743424530606152300282965311142561392854682185276403682342862447658714325426942527755511246039649635037177351770964785424604997441716331595927118062401002248053713490095666609753279837046560104457086267670335120000603723127531507209526496637479135337409852511871618248147747859193452911491019964918425416607143925730461965147678450076661515670731442487856003787212955691352531938480985371309921194785935046162414081954273131985704322629209489889537868136403705873837920007469666272478365560813528421155265385890406